p cnf 39 70
-9 20 0
-6 3 0
-6 26 0
-18 20 0
-24 20 0
-25 13 0
-23 6 0
-2 3 0
-2 6 0
-2 13 0
-2 16 0
-2 20 0
-2 23 0
-2 26 0
4 29 -3 0
5 -29 -3 0
-4 30 -3 0
-5 -30 -3 0
-4 3 0
-5 3 0
-3 2 0
-6 7 0
-6 8 0
-6 10 0
-7 6 0
-9 8 0
-8 6 0
12 31 -10 0
11 -31 -10 0
-12 32 -10 0
-11 -32 -10 0
-12 10 0
-11 10 0
-10 6 0
-6 2 0
14 33 -13 0
15 -33 -13 0
-14 34 -13 0
-15 -34 -13 0
-14 13 0
-15 13 0
-13 2 0
-16 19 0
-16 17 0
-19 16 0
-18 17 0
-17 16 0
-16 2 0
21 35 -20 0
22 -35 -20 0
-21 36 -20 0
-22 -36 -20 0
-21 20 0
-22 20 0
-20 2 0
24 37 -23 0
25 -37 -23 0
-24 38 -23 0
-25 -38 -23 0
-24 23 0
-25 23 0
-23 2 0
27 39 -26 0
28 -39 -26 0
-27 40 -26 0
-28 -40 -26 0
-27 26 0
-28 26 0
-26 2 0
2 0
